152
0 50 82 33 73 65 52 62 57 83 
32 30 35 140 13 151 17 150 80 4 
112 67 49 48 125 84 77 87 29 60 
22 127 139 110 145 131 86 69 23 75 
108 149 105 21 26 6 1 61 143 99 
128 11 51 3 103 14 124 129 79 2 
98 37 20 45 116 44 92 100 111 91 
31 5 123 47 70 119 120 58 93 27 
94 148 64 146 38 42 117 18 10 136 
102 81 130 115 9 88 55 43 7 68 
126 95 118 19 66 41 76 135 74 97 
85 15 72 63 25 54 101 24 39 16 
40 89 141 133 121 90 113 59 138 104 
144 122 12 109 132 8 114 134 71 34 
78 96 28 36 53 137 56 106 147 46 
142 107 
